horizon = 100000;numberWorkers = 10;
numberProducts = 10;
numberProductTypes = 1;
numberStations = 10;

releaseTimeW = [0, 0, 0, 0, 0, 0, 0, 0, 0, 0];
workerInitial = [1, 2, 3, 4, 5, 6, 7, 8, 9, 10];
currentStation = [0, 0, 0, 0, 0, 0, 0, 0, 0, 0];
currentStep = [0, 0, 0, 0, 0, 0, 0, 0, 0, 0];
currentBuffer = [0, 0, 0, 0, 0, 0, 0, 0, 0, 0];
releaseTime = [0, 0, 0, 0, 0, 0, 0, 0, 0, 0];
productType = [1, 1, 1, 1, 1, 1, 1, 1, 1, 1];

% workstep duration times as [allVariants][allStations] matrix
productionTimeMatrix = array2d(1..numberProductTypes, 1..numberStations, [100, 100, 100, 100, 80, 100, 100, 100, 100, 100]);
% is automatic flag as a [allVariants][allStations] matrix
numberManualWorksteps = array2d(1..numberProductTypes, 1..numberStations, [1, 1, 1, 1, 2, 1, 1, 1, 1, 1]);
% setup times as a [allVariants][allStations] matrix
setupTimes = array2d(1..numberProductTypes, 1..numberStations, [0, 0, 0, 0, 10, 0, 0, 0, 0, 0]);
% takedown times as a [allVariants][allStations] matrix
takedownTimes = array2d(1..numberProductTypes, 1..numberStations, [0, 0, 0, 0, 10, 0, 0, 0, 0, 0]);
% worker walking times from station to station as a [allStations][allStations] matrix
workerMovementMatrix = array2d(1..numberStations, 1..numberStations, [0, 30, 60, 90, 120, 150, 180, 150, 120, 90, 30, 0, 30, 60, 90, 120, 150, 120, 90, 120, 60, 30, 0, 30, 60, 90, 120, 90, 120, 150, 90, 60, 30, 0, 30, 60, 90, 120, 150, 180, 120, 90, 60, 30, 0, 30, 60, 90, 120, 150, 150, 120, 90, 60, 30, 0, 30, 60, 90, 120, 180, 150, 120, 90, 60, 30, 0, 30, 60, 90, 150, 120, 90, 120, 90, 60, 30, 0, 30, 60, 120, 90, 120, 150, 120, 90, 60, 30, 0, 30, 90, 120, 150, 180, 150, 120, 90, 60, 30, 0]);